#Input example Generated by GS JUNG@ornl 
# --------------------------------------------------------------------
# Input file for uniaxial compressive loading of single crystal aluminum
# Mark Tschopp, November 2010

# ------------------------ INITIALIZATION ----------------------------
units           metal
dimension       3
boundary        p p p 

atom_style      full
atom_modify     sort 0 0.0    # turn off sorting of the coordinates

# ----------------------- Read Structure file ------------------------
read_data       structure.data
variable        elems string "Ti Pb O"

# ------------------------ initialize system -------------------------

velocity        all create 300.0 87287 loop geom

# ------------------------ FORCE FIELDS ------------------------------
pair_style      zero 1.0
pair_coeff      * *

# ------------------------- SETTINGS ---------------------------------
neighbor        1.0 bin
neigh_modify    every 1 delay 0 check yes

variable        dt equal 0.001 # 1 [fs]
timestep        ${dt}

dump            equil all xyz 10 equil.xyz
dump_modify     equil element ${elems}

compute csym all centro/atom fcc

thermo          10
thermo_style    custom step temp ke pe press pxx pyy pzz xlo xhi ylo yhi 
thermo_modify   norm no flush yes

######################################
# MINIMIZATION
#fix             integ all nve
#fix             therm all langevin 10.0 10.0 0.1 699483
fix             f1 all dftbp dftb_in.hsd NULL
fix_modify      f1 energy yes

#fix             emin all box/relax x 0.0 y 0.0 z 0.0
#min_style       cg
#min_modify      dmax 0.2
#min_modify      line quadratic
#minimize        0.0 1.0e-4 1000 10000

#unfix           emin
#unfix           integ

######################################
# EQUILIBRATION
reset_timestep  0

#velocity        all create 300 12345 mom yes rot no
fix             f2 all npt temp 300 300 $(100.0*dt) iso 0.0 0.0 $(1000.0*dt) drag 1 

# Set thermo output
thermo          10
thermo_style    custom step lx ly lz press pxx pyy pzz pe temp

dump            d1 all cfg 10 cfg/dump.equil_*.cfg mass type xs ys zs c_csym fx fy fz
dump_modify     d1 element ${elems}

# Run for at least 10 picosecond (assuming 1 fs timestep)
run             200
unfix           f2
undump          d1

# Store final cell length for strain calculations
variable        tmp equal "lx"
variable        L0 equal ${tmp}
print           "Initial Length, L0: ${L0}"

######################################
# DEFORMATION
reset_timestep  0

fix             f3 all npt temp 300 300 $(100.0*dt) y 0 0 $(1000.0*dt) z 0 0 $(1000.0*dt) drag 1
variable        srate equal 1.0e10
variable        srate1 equal "-v_srate / 1.0e12"
fix             f4 all deform 1 x erate ${srate1} units box remap x

# Output strain and stress info to file
# for units metal, pressure is in [bars] = 100 [kPa] = 1/10000 [GPa]
# p2, p3, p4 are in GPa
variable strain equal "(lx - v_L0)/v_L0"
variable p1 equal "v_strain"
variable p2 equal "-pxx/10000"
variable p3 equal "-pyy/10000"
variable p4 equal "-pzz/10000"
fix def1 all print 100 "${p1} ${p2} ${p3} ${p4}" file Al_comp_100.def1.txt screen no

# Use cfg for AtomEye
dump            d2 all cfg 10 cfg/dump.comp_*.cfg mass type xs ys zs c_csym fx fy fz
dump_modify     d2 element ${elems}

# Display thermo
thermo          10
thermo_style    custom step v_strain temp v_p2 v_p3 v_p4 ke pe press

run             2000

######################################
# SIMULATION DONE
print "All done"

######################################
# Note
print "The rapid change in stress above a certain strain is due to the introduction of large deformations such as dislocations into the system."
