#Input example Generated by GS JUNG@ornl 
# --------------------------------------------------------------------
# Input file for uniaxial compressive loading of single crystal aluminum
# Mark Tschopp, November 2010

# ------------------------ INITIALIZATION ----------------------------
units           metal
dimension       3
boundary        p p p 

atom_style      full
atom_modify     sort 0 0.0    # turn off sorting of the coordinates

# ----------------------- Read Structure file ------------------------
read_data       structure.data
variable        elems string "Ti Pb O"

# ------------------------ initialize system -------------------------

velocity        all create 300.0 87287 loop geom

# ------------------------ FORCE FIELDS ------------------------------
pair_style      zero 1.0
pair_coeff      * *

# ------------------------- SETTINGS ---------------------------------
neighbor        1.0 bin
neigh_modify    every 1 delay 0 check yes

variable        dt equal 0.002 # 2 [fs]
timestep        ${dt}

dump            equil all xyz 10 equil.xyz
dump_modify     equil element ${elems}

compute csym all centro/atom fcc

thermo          10
thermo_style    custom step temp ke pe press pxx pyy pzz xlo xhi ylo yhi 
thermo_modify   norm no flush yes

######################################
# MINIMIZATION
#fix             integ all nve
#fix             therm all langevin 10.0 10.0 0.1 699483
fix             f1 all dftbp dftb_in.hsd NULL
fix_modify      f1 energy yes

#fix             emin all box/relax x 0.0 y 0.0
#min_style       cg
#min_modify      dmax 0.2
#min_modify      line quadratic
#minimize        0.0 1.0e-4 1000 10000

#unfix           emin
#unfix           integ

######################################
# EQUILIBRATION
reset_timestep  0

#velocity        all create 300 12345 mom yes rot no
fix             f2 all npt temp 300 300 $(100.0*dt) iso 0 0 $(1000.0*dt) drag 1 

# Set thermo output
thermo          10
thermo_style    custom step lx ly lz press pxx pyy pzz pe temp

dump            d1 all cfg 10 cfg/dump.equil_*.cfg mass type xs ys zs c_csym fx fy fz
dump_modify     d1 element ${elems}

# Run for at least 10 picosecond (assuming 1 fs timestep)
run             200
unfix           f2
undump          d1

# Store final cell length for strain calculations
variable        tmp equal "lx"
variable        L0 equal ${tmp}
print           "Initial Length, L0: ${L0}"

######################################
# MSD
reset_timestep  0

compute         mymsdO O msd com yes

variable        msdoxO equal "c_mymsdO[1]"
variable        msdoyO equal "c_mymsdO[2]"
variable        msdozO equal "c_mymsdO[3]"
variable      msdototO equal "c_mymsdO[4]"

fix msdT1       O ave/time 1 1 10 v_msdoxO v_msdoyO v_msdozO v_msdototO file msdO_300K

thermo          10
thermo_style    custom step v_Timer cpu temp etotal fmax lx ly lz vol press v_msdototO

fix             f3 all nvt temp 300.0 300.0 $(100.0*dt)
run             500

######################################
# SIMULATION DONE
print "All done"

######################################
# Note
print "The rapid change in stress above a certain strain is due to the introduction of large deformations such as dislocations into the system."
