#Input example Generated by GS JUNG@ornl 
# --------------------------------------------------------------------
# Input file for uniaxial compressive loading of single crystal aluminum
# Mark Tschopp, November 2010

# ------------------------ INITIALIZATION ----------------------------
units           metal
dimension       3
boundary        p p p 

atom_style      full
atom_modify     sort 0 0.0    # turn off sorting of the coordinates

# ----------------------- Read Structure file ------------------------
read_data       structure.data

variable        elems string "Ti Pb O"
group           Ti type 1
group           Pb type 2
group           O  type 3

# ------------------------ initialize system -------------------------

variable         Td equal 300.0 # [K]

velocity        all create ${Td} 87287 loop geom

# ------------------------ FORCE FIELDS ------------------------------
pair_style      zero 1.0
pair_coeff      * *

fix             f1 all dftbp dftb_in.hsd NULL
fix_modify      f1 energy yes # "energy yes" or "virial yes"

# ------------------------- SETTINGS ---------------------------------
neighbor        2.0 bin
neigh_modify    every 1 delay 0 check yes

timestep        0.00025 # 0.25 [fs]

dump            equil all xyz 10 equil.xyz
dump_modify     equil element ${elems}

thermo          10
thermo_style    custom step temp ke pe press pxx pyy pzz xlo xhi ylo yhi zlo zhi 
thermo_modify   norm no flush yes

######################################
# MINIMIZATION

#fix             emin all box/relax x 0.0 y 0.0 z 0.0
#min_style       cg
#min_modify      dmax 0.2
#min_modify      line quadratic
#minimize        0.0 1.0e-4 1000 10000
#unfix           emin

######################################
# MSD
reset_timestep  0

compute         mymsdO O msd com yes

variable        msdoxO equal "c_mymsdO[1]"
variable        msdoyO equal "c_mymsdO[2]"
variable        msdozO equal "c_mymsdO[3]"
variable      msdototO equal "c_mymsdO[4]"

fix             msdT1 O ave/time 1 1 10 v_msdoxO v_msdoyO v_msdozO v_msdototO file msdO_300K

thermo          10
thermo_style    custom step temp ke pe press pxx pyy pzz xlo xhi ylo yhi zlo zhi v_msdototO

dump            d2 all cfg 10 cfg/dump.msd_*.cfg mass type xs ys zs fx fy fz
dump_modify     d2 element ${elems}

fix             f3 all nvt temp ${Td} ${Td} $(100.0*dt)
#fix             f3 all npt temp ${Td} ${Td} $(100.0*dt) iso 0.0 0.0 $(1000.0*dt)

run             5000

######################################
# SIMULATION DONE
print "All done"

######################################
# Note
print "The rapid change in stress above a certain strain is due to the introduction of large deformations such as dislocations into the system."
