POSCAR file written by OVITO Basic 3.8.4
1
27.371366 0.0 0.0
0.0 27.371367 0.0
0.0 0.0 27.371367
C C O H N C C C O H H S 
6 3 6 24 6 3 6 12 1 7 9 1 
Cartesian
7.159736 17.513089 7.017405
5.359656 16.564199 9.353535
6.989996 14.676189 12.154455
6.669926 12.009199 14.337005
8.561986 12.332099 17.179205
11.498856 13.387279 17.970765
8.263756 17.221299 6.098835
10.867636 13.116109 23.272625
12.537726 15.503849 17.526825
6.974996 18.535589 7.671855
5.046216 17.608819 9.935885
8.145016 14.917349 12.449035
5.510666 12.064939 14.739965
8.395006 13.545239 17.152285
12.431126 12.838509 17.397395
8.876946 16.334279 6.366245
8.882416 18.122879 5.901975
7.826046 17.081699 5.087285
4.655996 17.297759 7.537335
5.044786 14.281069 7.958475
3.468796 15.183209 8.238175
5.206726 15.853519 12.066975
6.689186 16.649549 11.665195
8.144446 12.461039 12.779875
6.656956 11.534179 12.206095
6.672926 11.576049 16.902825
8.056896 9.529439 17.801555
8.880766 9.479679 16.248445
9.805736 13.421829 19.225005
11.573416 10.894479 19.351585
10.247286 11.338269 20.495315
12.320476 11.799359 21.644285
12.896856 12.656929 20.233455
10.345736 13.828459 23.946785
11.859196 12.902549 23.725985
10.357296 12.169249 22.994545
13.574756 15.116689 17.621705
12.394956 16.498239 18.001305
12.445926 15.507249 16.419635
6.441736 16.460579 7.151435
5.959136 15.550009 10.021905
6.427726 13.419729 12.302335
7.679056 11.631659 15.113235
9.574286 11.849089 17.914815
11.504526 14.704059 18.036885
5.231376 16.441169 7.856085
7.635686 11.336849 16.475875
10.411166 12.668149 18.743535
4.410326 15.139349 7.650015
6.126896 15.740099 11.513065
7.083916 12.275609 12.865175
7.939406 9.814619 16.734225
11.043096 11.743119 19.834175
11.984956 12.497329 20.847685
4.044916 14.932689 6.206505
4.642856 13.950029 5.344135
2.899836 15.596269 5.696335
4.180916 13.743459 4.039545
2.421606 15.378249 4.352145
3.083106 14.447229 3.503255
6.881646 8.831819 16.212835
7.307906 7.991079 15.203855
5.594796 8.652829 16.767315
6.421346 6.990649 14.699595
4.707126 7.783009 16.186065
5.142006 6.893769 15.187645
2.641446 14.215499 2.150555
6.766136 15.603239 6.759345
1.942136 14.848479 1.971945
6.294466 14.743269 9.541565
5.448396 13.336239 12.135135
8.554906 11.495679 14.656725
9.831796 10.887189 17.964215
10.677576 15.102479 18.426005
5.475086 13.348069 5.677965
2.423106 16.298469 6.364205
4.786756 13.092369 3.426805
1.581276 15.968669 4.018025
8.295536 8.065639 14.773245
5.238496 9.334469 17.525485
6.637736 6.279119 13.916465
3.686056 7.747649 16.536155
4.514266 6.119179 14.772495
11.284726 13.990039 21.662295
